experiment/data/hgs-res/Vrp-Set-A-n33/Vrp-Set-A-n33-hgs/1.hgs1.vrp
NAME : 1
COMMENT : CVRP Instance
TYPE : CVRP
DIMENSION : 33
EDGE_WEIGHT_TYPE : EUC_2D
CAPACITY : 100
NODE_COORD_SECTION
1	34.0	31.0
2	45.0	55.0
3	70.0	80.0
4	81.0	70.0
5	85.0	61.0
6	59.0	55.0
7	45.0	60.0
8	50.0	64.0
9	80.0	64.0
10	75.0	90.0
11	25.0	40.0
12	9.0	66.0
13	1.0	44.0
14	50.0	54.0
15	35.0	45.0
16	71.0	84.0
17	1.0	9.0
18	25.0	54.0
19	45.0	59.0
20	45.0	71.0
21	66.0	84.0
22	11.0	35.0
23	81.0	46.0
24	85.0	10.0
25	75.0	20.0
26	15.0	21.0
27	90.0	45.0
28	15.0	0.0
29	31.0	26.0
30	10.0	95.0
31	6.0	6.0
32	51.0	5.0
33	26.0	36.0
DEMAND_SECTION
1	0
2	26
3	17
4	6
5	15
6	7
7	5
8	15
9	16
10	17
11	1
12	21
13	66
14	25
15	16
16	11
17	7
18	17
19	17
20	22
21	10
22	25
23	16
24	7
25	21
26	11
27	21
28	11
29	21
30	22
31	25
32	2
33	22
DEPOT_SECTION
1
-1
EOF
