experiment/data/hgs-res/Vrp-Set-A-n33/Vrp-Set-A-n33-hgs/1.hgs1.log
=========== Algorithm Parameters =================
---- nbGranular        is set to 20
---- mu                is set to 25
---- lambda            is set to 40
---- nbElite           is set to 4
---- nbClose           is set to 5
---- targetFeasible    is set to 0.2
---- seed              is set to 1234
---- nbIter            is set to 20000
---- timeLimit         is set to 0
---- useSwapStar       is set to 1
==================================================
----- READING INSTANCE: baseline_results/cvrp_hgs/Vrp-Set-A-n33/Vrp-Set-A-n33-hgs/1.hgs1.vrp
----- FLEET SIZE WAS NOT SPECIFIED: DEFAULT INITIALIZATION TO 11 VEHICLES
----- INSTANCE SUCCESSFULLY LOADED WITH 32 CLIENTS AND 11 VEHICLES
----- BUILDING INITIAL POPULATION
----- STARTING GENETIC ALGORITHM
It      0      2 | T(s) 0.03 | Feas 33 742.69 746.56 | Inf 56 740.20 741.16 | Div 0.35 0.06 | Feas 0.45 1.00 | Pen 1.46 0.85
It    500    502 | T(s) 0.19 | Feas 57 742.69 743.43 | Inf 40 708.84 721.59 | Div 0.23 0.28 | Feas 0.26 1.00 | Pen 0.91 0.38
It   1000   1002 | T(s) 0.31 | Feas 49 742.69 744.70 | Inf 37 722.36 734.51 | Div 0.30 0.33 | Feas 0.25 1.00 | Pen 1.12 0.17
It   1500   1502 | T(s) 0.44 | Feas 55 742.69 744.29 | Inf 29 725.34 738.00 | Div 0.27 0.37 | Feas 0.22 1.00 | Pen 1.16 0.10
It   2000   2002 | T(s) 0.56 | Feas 41 742.69 745.79 | Inf 49 715.12 724.60 | Div 0.33 0.27 | Feas 0.31 1.00 | Pen 1.01 0.10
It   2500   2502 | T(s) 0.68 | Feas 28 742.69 757.60 | Inf 28 716.45 733.28 | Div 0.45 0.39 | Feas 0.23 1.00 | Pen 1.03 0.10
It   3000   3002 | T(s) 0.80 | Feas 55 742.69 744.66 | Inf 55 719.20 727.58 | Div 0.28 0.26 | Feas 0.28 1.00 | Pen 1.07 0.10
It   3500   3502 | T(s) 0.92 | Feas 37 742.69 747.34 | Inf 38 720.61 730.02 | Div 0.37 0.29 | Feas 0.24 1.00 | Pen 1.09 0.10
It   4000   4002 | T(s) 1.05 | Feas 29 742.69 755.98 | Inf 27 720.61 736.24 | Div 0.43 0.40 | Feas 0.25 1.00 | Pen 1.09 0.10
It   4500   4502 | T(s) 1.17 | Feas 52 742.69 744.48 | Inf 64 722.05 726.60 | Div 0.26 0.19 | Feas 0.23 1.00 | Pen 1.11 0.10
It   5000   5002 | T(s) 1.30 | Feas 43 742.69 746.58 | Inf 48 723.53 732.89 | Div 0.34 0.28 | Feas 0.15 1.00 | Pen 1.14 0.10
It   5500   5502 | T(s) 1.42 | Feas 25 742.69 765.37 | Inf 43 726.56 732.43 | Div 0.49 0.24 | Feas 0.06 1.00 | Pen 1.18 0.10
It   6000   6002 | T(s) 1.54 | Feas 60 742.69 743.82 | Inf 56 716.17 721.03 | Div 0.23 0.20 | Feas 0.28 1.00 | Pen 1.03 0.10
It   6500   6502 | T(s) 1.67 | Feas 44 742.69 744.81 | Inf 40 717.53 728.80 | Div 0.27 0.30 | Feas 0.16 1.00 | Pen 1.05 0.10
It   7000   7002 | T(s) 1.79 | Feas 30 742.69 754.63 | Inf 65 718.91 726.40 | Div 0.41 0.21 | Feas 0.24 1.00 | Pen 1.07 0.10
It   7500   7502 | T(s) 1.92 | Feas 43 742.69 745.23 | Inf 25 709.54 731.05 | Div 0.32 0.43 | Feas 0.26 1.00 | Pen 0.93 0.10
It   8000   8002 | T(s) 2.04 | Feas 60 742.69 744.02 | Inf 25 710.76 731.57 | Div 0.24 0.42 | Feas 0.26 1.00 | Pen 0.94 0.10
It   8500   8502 | T(s) 2.17 | Feas 45 742.69 745.45 | Inf 64 713.28 721.79 | Div 0.32 0.22 | Feas 0.27 1.00 | Pen 0.98 0.10
It   9000   9002 | T(s) 2.30 | Feas 49 742.69 744.91 | Inf 57 729.38 733.42 | Div 0.29 0.19 | Feas 0.13 1.00 | Pen 1.23 0.10
It   9500   9502 | T(s) 2.42 | Feas 41 742.69 748.80 | Inf 37 731.00 739.87 | Div 0.36 0.31 | Feas 0.15 1.00 | Pen 1.25 0.10
It  10000  10002 | T(s) 2.54 | Feas 35 742.69 754.11 | Inf 48 718.62 727.96 | Div 0.41 0.27 | Feas 0.22 1.00 | Pen 1.06 0.10
It  10500  10502 | T(s) 2.67 | Feas 32 742.69 750.51 | Inf 35 720.02 733.38 | Div 0.40 0.34 | Feas 0.34 1.00 | Pen 1.08 0.10
It  11000  11002 | T(s) 2.79 | Feas 56 742.69 744.12 | Inf 65 721.45 725.14 | Div 0.26 0.16 | Feas 0.22 1.00 | Pen 1.11 0.10
It  11500  11502 | T(s) 2.91 | Feas 47 742.69 745.25 | Inf 50 721.45 729.65 | Div 0.32 0.26 | Feas 0.20 1.00 | Pen 1.11 0.10
It  12000  12002 | T(s) 3.04 | Feas 33 742.69 753.09 | Inf 43 724.40 731.55 | Div 0.40 0.25 | Feas 0.06 1.00 | Pen 1.15 0.10
It  12500  12502 | T(s) 3.17 | Feas 29 742.69 758.20 | Inf 35 727.47 736.90 | Div 0.46 0.32 | Feas 0.08 1.00 | Pen 1.20 0.10
It  13000  13002 | T(s) 3.29 | Feas 59 742.69 744.33 | Inf 59 716.96 724.09 | Div 0.27 0.19 | Feas 0.21 1.00 | Pen 1.04 0.10
It  13500  13502 | T(s) 3.41 | Feas 55 742.69 744.39 | Inf 46 719.73 728.31 | Div 0.28 0.27 | Feas 0.35 1.00 | Pen 1.08 0.10
It  14000  14002 | T(s) 3.54 | Feas 57 742.69 743.91 | Inf 34 721.16 735.70 | Div 0.27 0.36 | Feas 0.24 1.00 | Pen 1.10 0.10
It  14500  14502 | T(s) 3.67 | Feas 56 742.69 744.53 | Inf 26 712.75 733.61 | Div 0.28 0.42 | Feas 0.26 1.00 | Pen 0.97 0.10
It  15000  15002 | T(s) 3.79 | Feas 62 742.69 744.75 | Inf 34 727.15 738.99 | Div 0.27 0.35 | Feas 0.08 1.00 | Pen 1.19 0.10
It  15500  15502 | T(s) 3.91 | Feas 62 742.69 743.83 | Inf 51 716.68 725.10 | Div 0.23 0.25 | Feas 0.24 1.00 | Pen 1.03 0.10
It  16000  16002 | T(s) 4.03 | Feas 37 742.69 752.00 | Inf 47 730.32 738.37 | Div 0.38 0.25 | Feas 0.19 1.00 | Pen 1.24 0.10
It  16500  16502 | T(s) 4.16 | Feas 60 742.69 744.80 | Inf 42 720.86 729.08 | Div 0.26 0.25 | Feas 0.06 1.00 | Pen 1.10 0.10
It  17000  17002 | T(s) 4.28 | Feas 46 742.69 746.50 | Inf 29 723.78 737.43 | Div 0.34 0.38 | Feas 0.12 1.00 | Pen 1.14 0.10
It  17500  17502 | T(s) 4.40 | Feas 28 742.69 756.04 | Inf 52 713.77 724.08 | Div 0.45 0.27 | Feas 0.30 1.00 | Pen 0.99 0.10
It  18000  18002 | T(s) 4.53 | Feas 47 742.69 746.24 | Inf 53 728.39 734.49 | Div 0.32 0.22 | Feas 0.13 1.00 | Pen 1.21 0.10
It  18500  18502 | T(s) 4.66 | Feas 38 742.69 748.54 | Inf 46 719.15 728.20 | Div 0.37 0.26 | Feas 0.04 1.00 | Pen 1.07 0.10
It  19000  19002 | T(s) 4.78 | Feas 39 742.69 746.51 | Inf 45 720.56 731.15 | Div 0.35 0.28 | Feas 0.16 1.00 | Pen 1.09 0.10
It  19500  19502 | T(s) 4.90 | Feas 26 742.69 763.81 | Inf 25 722.00 741.78 | Div 0.49 0.43 | Feas 0.19 1.00 | Pen 1.11 0.10
----- GENETIC ALGORITHM FINISHED AFTER 20000 ITERATIONS. TIME SPENT: 5.02251
----- WRITING BEST SOLUTION IN : baseline_results/cvrp_hgs/Vrp-Set-A-n33/Vrp-Set-A-n33-hgs/1.hgs1.tour
