experiment/data/hgs-res/Vrp-Set-A-n33/Vrp-Set-A-n33-hgs/1.hgs1.tour
Route #1: 28 27 30 16 25 32
Route #2: 31 23 24 26 22
Route #3: 4 8 3 9 15 20 2 5
Route #4: 13 6 18 1 14
Route #5: 17 11 29 19 7
Route #6: 10 12 21
Cost 742.693
